2733.29 0
0 194 66 186 196 191 197 199 90 192 198 188 151 175 152 0
0 178 180 168 126 183 116 185 42 184 195 54 0
0 162 31 10 170 164 85 167 111 171 173 139 0
0 25 163 148 147 107 160 158 141 22 156 121 157 0
0 29 15 88 138 155 140 114 142 137 143 181 187 169 46 127 0
0 125 58 128 177 132 119 129 131 135 24 144 43 61 0
0 76 110 118 117 159 104 115 113 190 136 53 112 87 60 0
0 89 91 93 101 94 103 124 79 98 99 102 100 97 106 96 95 0
0 3 109 80 108 84 133 35 179 83 37 82 172 2 0
0 67 68 74 63 73 72 75 71 69 78 70 123 65 0
0 86 28 64 41 62 182 55 161 57 34 45 59 0
0 40 9 189 51 8 153 154 47 174 120 48 0
0 149 150 52 165 38 77 50 12 130 32 6 0
0 193 21 36 122 20 27 176 26 81 17 0
0 7 11 134 14 19 13 30 23 49 18 56 39 0
0 1 145 92 146 44 16 105 33 166 5 4 0